11 16 13 18 4 3 2 12 6 14 15 17 9 7 1 5 19 8 0 10  
11 16 13 18 4 3 2 12 6 15 14 17 9 7 1 5 19 8 0 10  
4 3 18 6 9 19 16 13 1 7 5 15 12 14 17 2 8 11 0 10  
4 3 18 6 14 15 5 19 16 8 2 12 9 17 13 1 7 11 0 10  
11 16 18 13 4 3 5 12 6 14 15 17 9 1 2 7 19 8 0 10  
11 16 13 18 4 3 5 12 6 15 14 17 9 7 1 2 19 8 0 10  
4 3 18 6 9 16 14 15 11 17 13 12 7 1 5 19 2 8 0 10  
4 3 18 6 9 19 16 13 1 7 5 15 12 14 17 2 8 11 0 10  
11 16 18 5 15 4 13 17 3 2 12 8 6 10 0 19 1 14 9 7  
11 16 18 5 15 4 13 17 3 8 12 6 7 9 1 2 19 10 0 14  
11 16 18 13 4 3 5 12 6 15 14 17 9 1 2 7 19 8 0 10  
11 16 18 5 15 4 13 17 3 2 12 8 6 7 1 19 9 14 0 10  
11 16 18 5 4 15 13 17 3 8 2 12 6 14 1 19 9 7 0 10  
11 16 18 5 15 4 13 17 3 2 12 8 6 1 14 19 9 10 7 0  
11 16 18 5 15 4 13 17 3 2 12 8 6 1 14 19 10 0 9 7  
11 16 18 5 15 4 13 17 3 2 12 8 6 1 14 19 10 0 9 7  
11 16 18 5 15 4 13 17 3 2 12 8 6 1 14 19 9 10 0 7  
4 3 18 6 9 16 8 11 15 17 13 12 7 14 5 19 2 1 0 10  
11 16 18 5 15 4 13 17 3 2 12 8 6 10 0 19 1 14 9 7  
11 16 18 13 4 3 2 12 6 15 14 17 9 7 1 5 19 8 0 10  
11 16 13 18 4 3 2 12 6 15 14 17 9 7 1 5 19 8 0 10  
4 3 18 6 9 16 8 11 15 13 17 12 7 14 5 19 2 1 0 10  
11 16 18 5 4 15 13 17 3 8 2 12 6 14 1 19 9 7 0 10  
11 16 18 5 15 4 13 17 3 2 12 8 6 7 1 19 9 0 14 10  
11 16 18 13 4 3 5 12 6 14 15 9 17 7 0 19 1 8 2 10  
